NAME : XML100_3156_09
DIMENSION : 101
NB_CLUSTERS : 24
CLUSTERING_ALG : DBSCAN
CLUSTERING_PARAMS : eps(73), minSamples(3)
CLUSTERS
1 0
2 1 31 70 84
3 2 14 39 59 61 63 77 82 98 99
4 3 5 10 44 45 66 69
5 4 76 86
6 7 11 28 51 55 57 79 90 95 96
7 9 16 56 65 72 80 81 87 91 92
8 12 23 30 43 97
9 13 29 32 34 67
10 15 21 40 52 62
11 24 93 100
12 33 35 38 41 50 53 89
13 71 74
14 22 47 64
15 54 83 85
16 26 88
17 17 25
18 19 36 37 73
19 6 75
20 27 49
21 20 78 94
22 18 42 60
23 46 58
24 8 48 68
EOF